SDVRP instances/custom_instances/p04_25_splitx10_0.vrp
NAME:p04_25_splitx10_
BEST_KNOWN: 0
COMMENT: 0
DIMENSION: 712
CAPACITY: 2000
EDGE_WEIGHT_FORMAT: FUNCTION
EDGE_WEIGHT_TYPE: EXACT_2D
NODE_COORD_SECTION
1 0.00000 0.00000
2 -3 2
3 -3 2
4 -3 2
5 -3 2
6 -3 2
7 28 -26
8 28 -26
9 28 -26
10 -20 -39
11 -20 -39
12 -20 -39
13 -20 -39
14 -20 -39
15 -20 -39
16 -20 -39
17 39 0
18 39 0
19 39 0
20 39 0
21 39 0
22 39 0
23 4 -24
24 4 -24
25 4 -24
26 4 -24
27 4 -24
28 4 -24
29 4 -24
30 -20 37
31 -20 37
32 -20 37
33 -20 37
34 -20 37
35 -20 37
36 25 -45
37 25 -45
38 25 -45
39 25 -45
40 25 -45
41 25 -45
42 36 3
43 36 3
44 36 3
45 36 3
46 36 3
47 36 3
48 36 3
49 36 3
50 2 3
51 2 3
52 2 3
53 2 3
54 2 3
55 -29 48
56 -29 48
57 -29 48
58 -29 48
59 -29 48
60 -24 47
61 -24 47
62 -24 47
63 37 28
64 37 28
65 37 28
66 4 27
67 4 27
68 9 -33
69 9 -33
70 9 -33
71 9 -33
72 39 29
73 39 29
74 39 29
75 39 29
76 12 19
77 12 19
78 12 19
79 12 19
80 12 19
81 1 17
82 1 17
83 1 17
84 1 17
85 -24 -34
86 -24 -34
87 -24 -34
88 -24 -34
89 25 17
90 25 17
91 25 17
92 25 17
93 35 44
94 35 44
95 35 44
96 35 44
97 31 -17
98 31 -17
99 31 -17
100 -7 12
101 -7 12
102 -7 12
103 -7 12
104 -7 12
105 -7 12
106 -29 35
107 -29 35
108 -29 35
109 -29 35
110 -29 35
111 -29 35
112 -29 35
113 -29 35
114 -21 30
115 -21 30
116 -21 30
117 -21 30
118 9 41
119 9 41
120 9 41
121 9 41
122 -29 15
123 -29 15
124 -29 15
125 -29 15
126 -29 15
127 -41 45
128 -41 45
129 -41 45
130 -41 45
131 -41 45
132 -41 45
133 -41 45
134 15 19
135 15 19
136 15 19
137 15 19
138 15 19
139 15 19
140 -21 22
141 -21 22
142 -21 22
143 0 47
144 0 47
145 0 47
146 0 47
147 0 47
148 0 47
149 32 35
150 32 35
151 32 35
152 32 35
153 32 35
154 32 35
155 32 35
156 -19 -47
157 -19 -47
158 -19 -47
159 -19 -47
160 -19 -47
161 -19 -47
162 34 30
163 34 30
164 34 30
165 34 30
166 34 30
167 34 30
168 -32 41
169 -32 41
170 -32 41
171 -32 41
172 -32 41
173 -32 41
174 -12 49
175 -12 49
176 -11 44
177 -11 44
178 -31 1
179 -31 1
180 -31 1
181 -31 1
182 36 -45
183 36 -45
184 36 -45
185 36 -45
186 36 -45
187 36 -45
188 -29 15
189 -29 15
190 -29 15
191 10 -5
192 10 -5
193 10 -5
194 10 -5
195 10 -5
196 10 -5
197 10 -5
198 -31 -31
199 -31 -31
200 -31 -31
201 -31 -31
202 39 37
203 39 37
204 6 -28
205 6 -28
206 6 -28
207 6 -28
208 6 -28
209 -48 43
210 -48 43
211 -48 43
212 -48 43
213 -48 43
214 -48 43
215 -43 33
216 -43 33
217 -43 33
218 -39 4
219 -39 4
220 -39 4
221 -39 4
222 -31 -8
223 -31 -8
224 -31 -8
225 -31 -8
226 -31 -8
227 -31 -8
228 1 8
229 1 8
230 1 8
231 1 8
232 1 8
233 -25 -30
234 -25 -30
235 -25 -30
236 -25 -30
237 -25 -30
238 -19 18
239 -19 18
240 -19 18
241 -19 18
242 -19 18
243 -19 18
244 -40 -9
245 -40 -9
246 -40 -9
247 -40 -9
248 -40 -9
249 16 6
250 16 6
251 16 6
252 16 6
253 16 6
254 -46 45
255 -46 45
256 -46 45
257 -46 45
258 -46 45
259 -46 45
260 -24 15
261 -24 15
262 -24 15
263 -24 15
264 -24 15
265 -24 15
266 -45 50
267 -45 50
268 -45 50
269 -45 50
270 -33 17
271 -33 17
272 -33 17
273 40 -42
274 40 -42
275 40 -42
276 40 -42
277 40 -42
278 13 -5
279 13 -5
280 37 29
281 37 29
282 37 29
283 37 29
284 -23 50
285 -23 50
286 -23 50
287 -23 50
288 -23 50
289 -23 50
290 -23 50
291 -25 -14
292 -25 -14
293 -25 -14
294 -25 -14
295 -25 -14
296 -25 -14
297 27 -31
298 27 -31
299 27 -31
300 27 -31
301 -6 1
302 -6 1
303 -6 1
304 -6 1
305 -6 1
306 6 -10
307 6 -10
308 6 -10
309 6 -10
310 6 -10
311 -11 45
312 -11 45
313 -11 45
314 -11 45
315 -11 45
316 -40 10
317 -40 10
318 -40 10
319 -40 10
320 -40 10
321 -9 43
322 -9 43
323 -9 43
324 -9 43
325 -9 43
326 -9 43
327 18 39
328 18 39
329 18 39
330 18 39
331 18 39
332 -35 45
333 -35 45
334 -34 5
335 -34 5
336 -34 5
337 -34 5
338 -34 5
339 -5 31
340 -5 31
341 -5 31
342 -5 31
343 -5 31
344 -5 31
345 -5 31
346 4 31
347 4 31
348 4 31
349 4 31
350 4 31
351 33 -21
352 46 -16
353 46 -16
354 46 -16
355 46 -16
356 46 -16
357 46 -16
358 46 -16
359 -31 -21
360 -31 -21
361 -31 -21
362 -31 -21
363 -31 -21
364 29 3
365 29 3
366 29 3
367 29 3
368 29 3
369 -30 -18
370 -30 -18
371 -30 -18
372 -30 -18
373 -30 -18
374 8 -34
375 8 -34
376 8 -34
377 8 -34
378 8 -34
379 8 -34
380 8 -34
381 -48 -48
382 -48 -48
383 -48 -48
384 15 -20
385 15 -20
386 15 -20
387 -14 23
388 -14 23
389 -14 23
390 -14 23
391 -14 23
392 -18 21
393 -18 21
394 -18 21
395 -18 21
396 -47 -16
397 -47 -16
398 -47 -16
399 -47 -16
400 -47 -16
401 -47 -16
402 -47 -16
403 8 31
404 8 31
405 8 31
406 8 31
407 43 10
408 43 10
409 43 10
410 43 10
411 43 10
412 43 10
413 -24 38
414 -24 38
415 -24 38
416 -24 38
417 31 12
418 31 12
419 31 12
420 31 12
421 31 12
422 -30 -37
423 -30 -37
424 -34 0
425 -34 0
426 -34 0
427 -34 0
428 -26 37
429 -26 37
430 47 23
431 47 23
432 47 23
433 47 23
434 47 23
435 10 1
436 10 1
437 10 1
438 10 1
439 10 1
440 -36 -50
441 -36 -50
442 -36 -50
443 -38 -5
444 -38 -5
445 -38 -5
446 16 -16
447 16 -16
448 16 -16
449 16 -16
450 -46 -15
451 -46 -15
452 -46 -15
453 -46 -15
454 -46 -15
455 31 40
456 31 40
457 31 40
458 31 40
459 31 40
460 31 40
461 41 43
462 41 43
463 41 43
464 41 43
465 43 28
466 43 28
467 43 28
468 43 28
469 43 28
470 43 28
471 43 28
472 43 28
473 38 -22
474 38 -22
475 7 -8
476 7 -8
477 7 -8
478 50 10
479 50 10
480 50 10
481 50 10
482 32 35
483 32 35
484 32 35
485 -30 -11
486 -30 -11
487 -30 -11
488 -30 -11
489 -30 -11
490 -30 -11
491 5 50
492 5 50
493 5 50
494 5 50
495 5 50
496 -7 11
497 -7 11
498 -7 11
499 -7 11
500 -7 11
501 -5 -9
502 -5 -9
503 -5 -9
504 -5 -9
505 -5 -9
506 -5 -9
507 -5 -9
508 45 48
509 45 48
510 45 48
511 45 48
512 -45 -43
513 -45 -43
514 -45 -43
515 -45 -43
516 -45 -43
517 14 25
518 14 25
519 14 25
520 14 25
521 29 17
522 29 17
523 29 17
524 31 -31
525 31 -31
526 31 -31
527 31 -31
528 31 -31
529 31 -31
530 -15 -32
531 -15 -32
532 -15 -32
533 -15 -32
534 -15 -32
535 -15 -32
536 -15 -32
537 -35 40
538 -35 40
539 -35 40
540 -35 40
541 -35 40
542 13 1
543 13 1
544 13 1
545 13 1
546 13 1
547 13 1
548 19 6
549 19 6
550 19 6
551 19 6
552 19 6
553 -37 -3
554 -37 -3
555 -37 -3
556 -37 -3
557 9 -25
558 37 5
559 37 5
560 37 5
561 37 5
562 37 5
563 -3 6
564 -3 6
565 -3 6
566 -3 6
567 32 1
568 32 1
569 32 1
570 32 1
571 -47 3
572 -47 3
573 -47 3
574 -47 3
575 -47 3
576 -47 3
577 -8 3
578 -8 3
579 -8 3
580 -8 3
581 23 24
582 -47 36
583 -47 36
584 -47 36
585 -47 36
586 48 45
587 48 45
588 48 45
589 48 45
590 48 45
591 -18 2
592 -18 2
593 -18 2
594 -18 2
595 5 27
596 5 27
597 48 -27
598 48 -27
599 48 -27
600 48 -27
601 48 -27
602 48 -27
603 17 11
604 17 11
605 17 11
606 17 11
607 17 11
608 17 11
609 17 11
610 -4 -9
611 -4 -9
612 -4 -9
613 -4 -9
614 -4 -9
615 -4 -9
616 4 38
617 4 38
618 4 38
619 4 38
620 4 38
621 -13 33
622 -13 33
623 -13 33
624 -13 33
625 -13 33
626 36 28
627 36 28
628 36 28
629 36 28
630 36 28
631 36 28
632 36 28
633 36 28
634 -16 -19
635 -16 -19
636 -16 -19
637 -16 -19
638 -16 -19
639 -16 -19
640 -16 -19
641 -16 -19
642 15 -28
643 15 -28
644 15 -28
645 15 -28
646 15 -28
647 10 21
648 10 21
649 10 21
650 10 21
651 10 21
652 7 24
653 7 24
654 7 24
655 -32 -32
656 -32 -32
657 -32 -32
658 -32 -32
659 -32 -32
660 -32 -32
661 -49 33
662 -49 33
663 -49 33
664 38 45
665 38 45
666 38 45
667 38 45
668 38 45
669 -15 0
670 -15 0
671 -15 0
672 -15 0
673 -15 0
674 -15 0
675 -15 0
676 -15 0
677 26 17
678 26 17
679 26 17
680 26 17
681 49 -39
682 49 -39
683 49 -39
684 -3 34
685 -3 34
686 10 -32
687 10 -32
688 10 -32
689 10 -32
690 10 -32
691 -34 -2
692 -34 -2
693 -34 -2
694 -34 -2
695 -34 -2
696 -34 -2
697 -34 -2
698 -34 -2
699 12 29
700 12 29
701 21 -5
702 21 -5
703 21 -5
704 21 -5
705 21 -5
706 21 -5
707 25 38
708 25 38
709 25 38
710 25 38
711 25 38
712 25 38
DEMAND_SECTION
1 0
2 400
3 20
4 20
5 20
6 20
7 400
8 400
9 20
10 400
11 100
12 20
13 20
14 20
15 20
16 10
17 200
18 100
19 20
20 20
21 20
22 10
23 400
24 400
25 20
26 20
27 20
28 20
29 10
30 400
31 400
32 20
33 20
34 20
35 20
36 400
37 400
38 100
39 20
40 20
41 20
42 400
43 400
44 100
45 20
46 20
47 20
48 20
49 10
50 400
51 20
52 20
53 20
54 10
55 200
56 100
57 20
58 20
59 20
60 400
61 200
62 100
63 400
64 400
65 20
66 400
67 100
68 400
69 200
70 100
71 20
72 200
73 20
74 20
75 20
76 200
77 20
78 20
79 20
80 20
81 400
82 200
83 20
84 20
85 400
86 200
87 100
88 10
89 400
90 400
91 100
92 10
93 400
94 200
95 20
96 20
97 400
98 400
99 10
100 400
101 400
102 100
103 20
104 20
105 20
106 400
107 400
108 100
109 20
110 20
111 20
112 20
113 10
114 400
115 400
116 20
117 20
118 400
119 400
120 100
121 20
122 400
123 400
124 20
125 20
126 10
127 400
128 100
129 20
130 20
131 20
132 20
133 10
134 200
135 100
136 20
137 20
138 20
139 20
140 200
141 100
142 10
143 400
144 100
145 20
146 20
147 20
148 20
149 200
150 100
151 20
152 20
153 20
154 20
155 10
156 400
157 200
158 20
159 20
160 20
161 10
162 400
163 20
164 20
165 20
166 20
167 10
168 400
169 100
170 20
171 20
172 20
173 20
174 200
175 100
176 400
177 200
178 200
179 20
180 20
181 10
182 400
183 100
184 20
185 20
186 20
187 20
188 400
189 400
190 20
191 400
192 200
193 100
194 20
195 20
196 20
197 10
198 200
199 100
200 20
201 10
202 400
203 400
204 400
205 400
206 20
207 20
208 20
209 400
210 200
211 20
212 20
213 20
214 20
215 400
216 400
217 200
218 200
219 20
220 20
221 20
222 400
223 100
224 20
225 20
226 20
227 10
228 400
229 400
230 100
231 20
232 20
233 400
234 400
235 20
236 20
237 20
238 400
239 200
240 100
241 20
242 20
243 20
244 400
245 200
246 20
247 20
248 10
249 400
250 200
251 20
252 20
253 10
254 400
255 20
256 20
257 20
258 20
259 10
260 400
261 400
262 100
263 20
264 20
265 20
266 400
267 20
268 20
269 10
270 400
271 20
272 20
273 400
274 20
275 20
276 20
277 10
278 200
279 100
280 200
281 20
282 20
283 20
284 400
285 200
286 100
287 20
288 20
289 20
290 20
291 400
292 400
293 100
294 20
295 20
296 10
297 400
298 20
299 20
300 10
301 400
302 200
303 20
304 20
305 10
306 400
307 20
308 20
309 20
310 20
311 400
312 400
313 100
314 20
315 10
316 400
317 200
318 20
319 20
320 20
321 400
322 20
323 20
324 20
325 20
326 10
327 400
328 400
329 100
330 20
331 10
332 400
333 20
334 400
335 200
336 100
337 20
338 20
339 400
340 400
341 100
342 20
343 20
344 20
345 10
346 400
347 400
348 100
349 20
350 10
351 400
352 400
353 100
354 20
355 20
356 20
357 20
358 10
359 400
360 400
361 100
362 20
363 10
364 400
365 100
366 20
367 20
368 20
369 200
370 100
371 20
372 20
373 10
374 400
375 400
376 20
377 20
378 20
379 20
380 10
381 400
382 400
383 200
384 400
385 400
386 20
387 400
388 200
389 20
390 20
391 20
392 400
393 20
394 20
395 10
396 400
397 400
398 20
399 20
400 20
401 20
402 10
403 400
404 20
405 20
406 10
407 400
408 20
409 20
410 20
411 20
412 10
413 400
414 20
415 20
416 10
417 200
418 100
419 20
420 20
421 10
422 400
423 400
424 200
425 20
426 20
427 10
428 400
429 200
430 400
431 200
432 20
433 20
434 20
435 400
436 200
437 20
438 20
439 10
440 400
441 400
442 100
443 400
444 400
445 100
446 200
447 20
448 20
449 10
450 400
451 100
452 20
453 20
454 10
455 400
456 200
457 20
458 20
459 20
460 20
461 400
462 400
463 20
464 20
465 400
466 200
467 100
468 20
469 20
470 20
471 20
472 10
473 200
474 100
475 400
476 100
477 10
478 400
479 100
480 20
481 20
482 400
483 400
484 10
485 400
486 20
487 20
488 20
489 20
490 10
491 400
492 200
493 100
494 20
495 20
496 200
497 100
498 20
499 20
500 20
501 400
502 400
503 100
504 20
505 20
506 20
507 10
508 400
509 200
510 100
511 10
512 400
513 200
514 20
515 20
516 20
517 400
518 20
519 20
520 10
521 400
522 100
523 10
524 400
525 100
526 20
527 20
528 20
529 10
530 400
531 400
532 100
533 20
534 20
535 20
536 10
537 200
538 100
539 20
540 20
541 10
542 400
543 100
544 20
545 20
546 20
547 20
548 200
549 100
550 20
551 20
552 10
553 200
554 100
555 20
556 20
557 400
558 200
559 100
560 20
561 20
562 20
563 200
564 100
565 20
566 20
567 400
568 200
569 20
570 10
571 200
572 100
573 20
574 20
575 20
576 10
577 400
578 200
579 20
580 10
581 400
582 400
583 100
584 20
585 20
586 200
587 20
588 20
589 20
590 10
591 400
592 400
593 20
594 20
595 400
596 200
597 400
598 400
599 20
600 20
601 20
602 10
603 400
604 400
605 20
606 20
607 20
608 20
609 10
610 400
611 400
612 20
613 20
614 20
615 20
616 200
617 20
618 20
619 20
620 20
621 400
622 200
623 20
624 20
625 20
626 400
627 400
628 100
629 20
630 20
631 20
632 20
633 10
634 400
635 400
636 100
637 20
638 20
639 20
640 20
641 10
642 400
643 20
644 20
645 20
646 10
647 200
648 20
649 20
650 20
651 20
652 200
653 100
654 10
655 400
656 100
657 20
658 20
659 20
660 20
661 200
662 100
663 20
664 200
665 100
666 20
667 20
668 10
669 400
670 200
671 100
672 20
673 20
674 20
675 20
676 10
677 400
678 20
679 20
680 10
681 400
682 400
683 100
684 400
685 400
686 400
687 100
688 20
689 20
690 20
691 400
692 400
693 100
694 20
695 20
696 20
697 20
698 10
699 200
700 100
701 400
702 100
703 20
704 20
705 20
706 20
707 200
708 20
709 20
710 20
711 20
712 10
DEPOT_SECTION
1
-1
EOF