SDVRP instances/custom_instances/p04_25_splitx10_0.sol
711 -2 3 660 662 661 582 581 584 583 216 215 214 -4 1 5 495 498 496 103 100 99 101 564 563 562 -9 11 84 85 234 233 235 236 232 -23 26 22 24 28 25 27 207 206 203 204 205 -51 53 52 49 50 230 227 229 228 231 -56 57 55 58 54 266 268 265 267 255 256 258 257 253 254 213 208 212 209 211 210 -66 65 348 345 349 346 594 595 -67 68 37 39 36 35 40 38 643 641 642 -79 78 77 75 76 135 133 136 134 137 138 519 517 518 516 698 699 653 652 651 648 647 646 650 649 -81 83 683 684 342 341 340 338 344 339 343 -82 80 615 120 117 118 119 403 405 402 404 -86 87 439 440 441 158 157 159 155 156 160 13 15 14 12 10 504 505 506 503 -90 89 88 91 679 677 678 676 520 521 522 -93 92 94 95 663 666 665 667 664 509 507 510 508 585 586 588 589 587 -104 102 390 386 389 391 393 392 394 141 139 140 240 237 241 238 239 242 -108 111 112 536 538 540 537 539 128 126 127 129 130 132 131 332 331 170 167 172 169 171 168 -109 105 110 106 107 428 427 413 412 414 415 -115 114 116 113 34 31 33 32 29 30 388 387 497 499 -161 483 150 152 149 148 482 481 153 151 154 580 -162 163 164 166 165 280 281 282 63 62 64 625 626 627 632 630 631 628 629 -176 174 173 288 285 287 283 284 289 286 61 60 59 565 -177 179 178 180 694 693 697 692 691 696 690 695 424 336 334 335 337 333 -182 181 184 183 185 186 276 274 272 275 273 680 682 681 -193 195 191 192 196 190 194 545 542 543 546 541 544 436 435 437 438 434 -200 198 199 197 657 658 659 656 654 655 421 422 -217 218 219 220 316 315 319 318 317 570 571 573 575 572 574 244 245 243 246 247 671 674 -223 226 221 222 444 443 442 555 552 554 553 425 423 426 -225 224 449 452 451 450 453 399 401 400 396 398 397 395 486 484 488 489 485 487 -250 249 248 251 252 548 551 547 549 550 605 604 607 608 602 603 606 -261 260 263 125 188 187 576 577 578 579 -262 259 264 271 269 270 121 123 122 124 189 301 304 303 302 -278 277 702 700 705 97 98 96 350 -279 73 74 71 72 468 470 464 469 471 466 465 467 433 430 432 429 431 -295 293 294 290 292 291 368 371 358 362 359 -300 593 591 592 590 673 669 675 672 670 668 -308 305 306 385 383 384 445 446 474 476 475 -309 307 644 645 297 298 296 299 523 526 525 527 524 528 7 8 6 448 447 -312 310 311 314 313 175 621 620 624 622 623 -322 325 321 323 324 320 143 142 144 146 147 145 493 491 494 490 492 619 617 616 618 347 -327 326 329 330 328 708 711 710 706 707 709 458 457 455 454 456 459 -367 363 366 365 364 48 43 42 44 47 46 41 45 569 566 -370 369 372 360 361 511 515 514 513 512 380 381 382 -379 375 378 376 373 374 377 69 70 685 688 689 687 686 556 -416 419 420 418 417 201 202 462 463 461 460 -473 472 597 599 601 596 600 598 353 355 354 357 352 356 351 701 704 703 -501 502 500 609 612 611 613 614 610 -535 532 533 534 531 529 530 636 638 634 633 635 640 637 639 -557 559 561 558 560 409 411 407 406 410 408 479 477 478 480 18 21 16 19 20 17 568 567 0 





OBJ=
4177.002
BEST_KNOWN=
0.000